Route #1: 0 112 60 83 5 97 13 137 2 58 40 139 149 26 0
Route #2: 0 94 95 99 93 61 16 100 42 57 87 105 53 0
Route #3: 0 73 115 144 15 145 41 133 56 23 67 4 54 24 0
Route #4: 0 12 109 116 79 68 150 130 39 74 72 0
Route #5: 0 52 132 70 103 71 9 33 81 34 29 121 80 77 76 28 0
Route #6: 0 27 146 89 147 6 59 85 86 14 98 92 0
Route #7: 0 96 118 84 45 8 124 48 7 106 18 127 101 0
Route #8: 0 69 31 88 62 10 131 107 19 123 47 82 0
Route #9: 0 138 110 134 129 78 51 128 108 122 1 102 50 111 0
Route #10: 0 3 120 135 35 136 65 66 20 32 63 126 90 30 0
Route #11: 0 148 148 11 64 49 143 36 46 114 125 17 44 91 37 142 0
Route #12: 0 117 104 104 113 141 119 38 140 43 22 75 21 55 25 0
Cost 1568:
